sat
(:max-memory          18.65
 :memory              17.66
 :num-allocs          177499080
 :rlimit-count        712287
 :sls-constraints     4792
 :sls-ddfw-flips      12351320.00
 :sls-ddfw-reinits    50
 :sls-ddfw-restarts   4770
 :sls-ddfw-shifts     4568972.00
 :sls.euf-conflict    4792
 :solve-eqs-elim-vars 5
 :solve-eqs-steps     12
 :time                15.82
 :total-time          15.77)
